g9 0 1 0 0 20170614 0 4 0 240	# problem ex8_6_2
 24 0 1 0 0	# vars, constraints, objectives, ranges, eqns
 0 1	# nonlinear constraints, objectives
 0 0	# network constraints: nonlinear, linear
 0 24 0	# nonlinear vars in constraints, objectives, both
 0 0 0 1	# linear network variables; functions; arith, flags
 0 0 0 0 0	# discrete variables: binary, integer, nonlinear (b,c,o)
 0 24	# nonzeros in Jacobian, gradients
 0 0	# max name lengths: constraints, variables
 0 0 0 0 0	# common exprs: b,c,o,c1,o1
b
0 -5 5
0 -5 5
0 -5 5
0 -5 5
0 -5 5
0 -5 5
0 -5 5
0 -5 5
0 -5 5
0 -5 5
0 -5 5
0 -5 5
0 -5 5
0 -5 5
0 -5 5
0 -5 5
0 -5 5
0 -5 5
0 -5 5
0 -5 5
0 -5 5
0 -5 5
0 -5 5
0 -5 5
x24
0 3.43266708
1 0.50375356
2 -1.98862096
3 -2.07787883
4 -2.75947133
5 -1.50169496
6 3.56270347
7 -4.32886277
8 0.00210668999999974
9 4.91133039
10 2.62250467
11 -3.69307517
12 1.39718759
13 -3.40482136
14 -2.49919467
15 1.68928609
16 -0.64643619
17 -3.49898212
18 0.8911365
19 3.30892812
20 -2.69184262
21 1.6573446
22 2.75857606
23 -1.96341523
O0 0
o54
46
o5
o1
n1
o44
o0
n3
o2
n-3
o39
o5
o16
v0
n2
n2
o5
o1
n1
o44
o0
n3
o2
n-3
o39
o0
o5
o16
v1
n2
o5
o16
v9
n2
n2
o5
o1
n1
o44
o0
n3
o2
n-3
o39
o54
3
o5
o16
v2
n2
o5
o16
v10
n2
o5
o16
v17
n2
n2
o5
o1
n1
o44
o0
n3
o2
n-3
o39
o54
3
o5
o16
v3
n2
o5
o16
v11
n2
o5
o16
v18
n2
n2
o5
o1
n1
o44
o0
n3
o2
n-3
o39
o54
3
o5
o16
v4
n2
o5
o16
v12
n2
o5
o16
v19
n2
n2
o5
o1
n1
o44
o0
n3
o2
n-3
o39
o54
3
o5
o16
v5
n2
o5
o16
v13
n2
o5
o16
v20
n2
n2
o5
o1
n1
o44
o0
n3
o2
n-3
o39
o54
3
o5
o16
v6
n2
o5
o16
v14
n2
o5
o16
v21
n2
n2
o5
o1
n1
o44
o0
n3
o2
n-3
o39
o54
3
o5
o16
v7
n2
o5
o16
v15
n2
o5
o16
v22
n2
n2
o5
o1
n1
o44
o0
n3
o2
n-3
o39
o54
3
o5
o16
v8
n2
o5
o16
v16
n2
o5
o16
v23
n2
n2
o5
o1
n1
o44
o0
n3
o2
n-3
o39
o0
o5
o1
v0
v1
n2
o5
o16
v9
n2
n2
o5
o1
n1
o44
o0
n3
o2
n-3
o39
o54
3
o5
o1
v0
v2
n2
o5
o16
v10
n2
o5
o16
v17
n2
n2
o5
o1
n1
o44
o0
n3
o2
n-3
o39
o54
3
o5
o1
v0
v3
n2
o5
o16
v11
n2
o5
o16
v18
n2
n2
o5
o1
n1
o44
o0
n3
o2
n-3
o39
o54
3
o5
o1
v0
v4
n2
o5
o16
v12
n2
o5
o16
v19
n2
n2
o5
o1
n1
o44
o0
n3
o2
n-3
o39
o54
3
o5
o1
v0
v5
n2
o5
o16
v13
n2
o5
o16
v20
n2
n2
o5
o1
n1
o44
o0
n3
o2
n-3
o39
o54
3
o5
o1
v0
v6
n2
o5
o16
v14
n2
o5
o16
v21
n2
n2
o5
o1
n1
o44
o0
n3
o2
n-3
o39
o54
3
o5
o1
v0
v7
n2
o5
o16
v15
n2
o5
o16
v22
n2
n2
o5
o1
n1
o44
o0
n3
o2
n-3
o39
o54
3
o5
o1
v0
v8
n2
o5
o16
v16
n2
o5
o16
v23
n2
n2
o5
o1
n1
o44
o0
n3
o2
n-3
o39
o54
3
o5
o1
v1
v2
n2
o5
o1
v9
v10
n2
o5
o16
v17
n2
n2
o5
o1
n1
o44
o0
n3
o2
n-3
o39
o54
3
o5
o1
v1
v3
n2
o5
o1
v9
v11
n2
o5
o16
v18
n2
n2
o5
o1
n1
o44
o0
n3
o2
n-3
o39
o54
3
o5
o1
v1
v4
n2
o5
o1
v9
v12
n2
o5
o16
v19
n2
n2
o5
o1
n1
o44
o0
n3
o2
n-3
o39
o54
3
o5
o1
v1
v5
n2
o5
o1
v9
v13
n2
o5
o16
v20
n2
n2
o5
o1
n1
o44
o0
n3
o2
n-3
o39
o54
3
o5
o1
v1
v6
n2
o5
o1
v9
v14
n2
o5
o16
v21
n2
n2
o5
o1
n1
o44
o0
n3
o2
n-3
o39
o54
3
o5
o1
v1
v7
n2
o5
o1
v9
v15
n2
o5
o16
v22
n2
n2
o5
o1
n1
o44
o0
n3
o2
n-3
o39
o54
3
o5
o1
v1
v8
n2
o5
o1
v9
v16
n2
o5
o16
v23
n2
n2
o5
o1
n1
o44
o0
n3
o2
n-3
o39
o54
3
o5
o1
v2
v3
n2
o5
o1
v10
v11
n2
o5
o1
v17
v18
n2
n2
o5
o1
n1
o44
o0
n3
o2
n-3
o39
o54
3
o5
o1
v2
v4
n2
o5
o1
v10
v12
n2
o5
o1
v17
v19
n2
n2
o5
o1
n1
o44
o0
n3
o2
n-3
o39
o54
3
o5
o1
v2
v5
n2
o5
o1
v10
v13
n2
o5
o1
v17
v20
n2
n2
o5
o1
n1
o44
o0
n3
o2
n-3
o39
o54
3
o5
o1
v2
v6
n2
o5
o1
v10
v14
n2
o5
o1
v17
v21
n2
n2
o5
o1
n1
o44
o0
n3
o2
n-3
o39
o54
3
o5
o1
v2
v7
n2
o5
o1
v10
v15
n2
o5
o1
v17
v22
n2
n2
o5
o1
n1
o44
o0
n3
o2
n-3
o39
o54
3
o5
o1
v2
v8
n2
o5
o1
v10
v16
n2
o5
o1
v17
v23
n2
n2
o5
o1
n1
o44
o0
n3
o2
n-3
o39
o54
3
o5
o1
v3
v4
n2
o5
o1
v11
v12
n2
o5
o1
v18
v19
n2
n2
o5
o1
n1
o44
o0
n3
o2
n-3
o39
o54
3
o5
o1
v3
v5
n2
o5
o1
v11
v13
n2
o5
o1
v18
v20
n2
n2
o5
o1
n1
o44
o0
n3
o2
n-3
o39
o54
3
o5
o1
v3
v6
n2
o5
o1
v11
v14
n2
o5
o1
v18
v21
n2
n2
o5
o1
n1
o44
o0
n3
o2
n-3
o39
o54
3
o5
o1
v3
v7
n2
o5
o1
v11
v15
n2
o5
o1
v18
v22
n2
n2
o5
o1
n1
o44
o0
n3
o2
n-3
o39
o54
3
o5
o1
v3
v8
n2
o5
o1
v11
v16
n2
o5
o1
v18
v23
n2
n2
o5
o1
n1
o44
o0
n3
o2
n-3
o39
o54
3
o5
o1
v4
v5
n2
o5
o1
v12
v13
n2
o5
o1
v19
v20
n2
n2
o5
o1
n1
o44
o0
n3
o2
n-3
o39
o54
3
o5
o1
v4
v6
n2
o5
o1
v12
v14
n2
o5
o1
v19
v21
n2
n2
o5
o1
n1
o44
o0
n3
o2
n-3
o39
o54
3
o5
o1
v4
v7
n2
o5
o1
v12
v15
n2
o5
o1
v19
v22
n2
n2
o5
o1
n1
o44
o0
n3
o2
n-3
o39
o54
3
o5
o1
v4
v8
n2
o5
o1
v12
v16
n2
o5
o1
v19
v23
n2
n2
o5
o1
n1
o44
o0
n3
o2
n-3
o39
o54
3
o5
o1
v5
v6
n2
o5
o1
v13
v14
n2
o5
o1
v20
v21
n2
n2
o5
o1
n1
o44
o0
n3
o2
n-3
o39
o54
3
o5
o1
v5
v7
n2
o5
o1
v13
v15
n2
o5
o1
v20
v22
n2
n2
o5
o1
n1
o44
o0
n3
o2
n-3
o39
o54
3
o5
o1
v5
v8
n2
o5
o1
v13
v16
n2
o5
o1
v20
v23
n2
n2
o5
o1
n1
o44
o0
n3
o2
n-3
o39
o54
3
o5
o1
v6
v7
n2
o5
o1
v14
v15
n2
o5
o1
v21
v22
n2
n2
o5
o1
n1
o44
o0
n3
o2
n-3
o39
o54
3
o5
o1
v6
v8
n2
o5
o1
v14
v16
n2
o5
o1
v21
v23
n2
n2
o5
o1
n1
o44
o0
n3
o2
n-3
o39
o54
3
o5
o1
v7
v8
n2
o5
o1
v15
v16
n2
o5
o1
v22
v23
n2
n2
n-45
k23
0
0
0
0
0
0
0
0
0
0
0
0
0
0
0
0
0
0
0
0
0
0
0
G0 24
0 0
1 0
2 0
3 0
4 0
5 0
6 0
7 0
8 0
9 0
10 0
11 0
12 0
13 0
14 0
15 0
16 0
17 0
18 0
19 0
20 0
21 0
22 0
23 0
